sat
(model
; cardinality of BoundSet is 1
(declare-sort BoundSet 0)
; rep: @uc_BoundSet_0
; cardinality of UnboundSet is 2
(declare-sort UnboundSet 0)
; rep: @uc_UnboundSet_0
; rep: @uc_UnboundSet_1
(define-fun a () UnboundSet @uc_UnboundSet_0)
(define-fun d () UnboundSet @uc_UnboundSet_1)
(define-fun IsLivedExactlyLike ((BOUND_VARIABLE_345 UnboundSet) (BOUND_VARIABLE_346 BoundSet)) Bool true)
(define-fun IsBeautiful ((BOUND_VARIABLE_353 UnboundSet)) Bool false)
(define-fun IsAPlace ((BOUND_VARIABLE_360 BoundSet)) Bool false)
)
